inputs/82.in
12
0 36 85 20 47 52 30 41 63 32 22 24 
36 0 75 20 76 87 47 42 10 58 94 23 
85 75 0 71 30 21 57 47 83 84 68 85 
20 20 71 0 11 5 80 51 88 42 97 50 
47 76 30 11 0 55 59 8 47 51 62 57 
52 87 21 5 55 0 19 79 53 64 14 25 
30 47 57 80 59 19 0 93 54 64 70 5 
41 42 47 51 8 79 93 0 85 11 83 59 
63 10 83 88 47 53 54 85 0 86 83 20 
32 58 84 42 51 64 64 11 86 0 28 5 
22 94 68 97 62 14 70 83 83 28 0 64 
24 23 85 50 57 25 5 59 20 5 64 0 
BRRBBBRRBRRB
