output/82.out
18 21 48 47 16 30 14 13 6 38 34 19 37 8 26 45 12 20 29 41 15 27 46 31 23 42 33 4 39 43 44 3 25 40 5 50 1 32 28 10 7 35 22 24 2 17 11 49 36 9 
